certificates/rado_a15_c245_N49.cnf
c Rad2 upper bound instance: x1 + 15*x2 - x3 = 245, interval [1,49]
p cnf 49 318
1 11 17 0
-1 -11 -17 0
1 18 26 0
-1 -18 -26 0
1 19 41 0
-1 -19 -41 0
2 12 17 0
-2 -12 -17 0
2 18 27 0
-2 -18 -27 0
2 19 42 0
-2 -19 -42 0
3 13 17 0
-3 -13 -17 0
3 18 28 0
-3 -18 -28 0
3 19 43 0
-3 -19 -43 0
4 14 17 0
-4 -14 -17 0
4 18 29 0
-4 -18 -29 0
4 19 44 0
-4 -19 -44 0
5 15 17 0
-5 -15 -17 0
5 18 30 0
-5 -18 -30 0
5 19 45 0
-5 -19 -45 0
1 6 16 0
-1 -6 -16 0
6 16 17 0
-6 -16 -17 0
6 18 31 0
-6 -18 -31 0
6 19 46 0
-6 -19 -46 0
2 7 16 0
-2 -7 -16 0
7 17 0
-7 -17 0
7 18 32 0
-7 -18 -32 0
7 19 47 0
-7 -19 -47 0
3 8 16 0
-3 -8 -16 0
8 17 18 0
-8 -17 -18 0
8 18 33 0
-8 -18 -33 0
8 19 48 0
-8 -19 -48 0
4 9 16 0
-4 -9 -16 0
9 17 19 0
-9 -17 -19 0
9 18 34 0
-9 -18 -34 0
9 19 49 0
-9 -19 -49 0
5 10 16 0
-5 -10 -16 0
10 17 20 0
-10 -17 -20 0
10 18 35 0
-10 -18 -35 0
6 11 16 0
-6 -11 -16 0
11 17 21 0
-11 -17 -21 0
11 18 36 0
-11 -18 -36 0
7 12 16 0
-7 -12 -16 0
12 17 22 0
-12 -17 -22 0
12 18 37 0
-12 -18 -37 0
8 13 16 0
-8 -13 -16 0
13 17 23 0
-13 -17 -23 0
13 18 38 0
-13 -18 -38 0
9 14 16 0
-9 -14 -16 0
14 17 24 0
-14 -17 -24 0
14 18 39 0
-14 -18 -39 0
10 15 16 0
-10 -15 -16 0
15 17 25 0
-15 -17 -25 0
15 18 40 0
-15 -18 -40 0
11 16 0
-11 -16 0
16 17 26 0
-16 -17 -26 0
16 18 41 0
-16 -18 -41 0
12 16 17 0
-12 -16 -17 0
17 27 0
-17 -27 0
17 18 42 0
-17 -18 -42 0
13 16 18 0
-13 -16 -18 0
17 18 28 0
-17 -18 -28 0
18 43 0
-18 -43 0
14 16 19 0
-14 -16 -19 0
17 19 29 0
-17 -19 -29 0
18 19 44 0
-18 -19 -44 0
15 16 20 0
-15 -16 -20 0
17 20 30 0
-17 -20 -30 0
18 20 45 0
-18 -20 -45 0
1 15 21 0
-1 -15 -21 0
16 21 0
-16 -21 0
17 21 31 0
-17 -21 -31 0
18 21 46 0
-18 -21 -46 0
2 15 22 0
-2 -15 -22 0
16 17 22 0
-16 -17 -22 0
17 22 32 0
-17 -22 -32 0
18 22 47 0
-18 -22 -47 0
3 15 23 0
-3 -15 -23 0
16 18 23 0
-16 -18 -23 0
17 23 33 0
-17 -23 -33 0
18 23 48 0
-18 -23 -48 0
4 15 24 0
-4 -15 -24 0
16 19 24 0
-16 -19 -24 0
17 24 34 0
-17 -24 -34 0
18 24 49 0
-18 -24 -49 0
5 15 25 0
-5 -15 -25 0
16 20 25 0
-16 -20 -25 0
17 25 35 0
-17 -25 -35 0
6 15 26 0
-6 -15 -26 0
16 21 26 0
-16 -21 -26 0
17 26 36 0
-17 -26 -36 0
7 15 27 0
-7 -15 -27 0
16 22 27 0
-16 -22 -27 0
17 27 37 0
-17 -27 -37 0
8 15 28 0
-8 -15 -28 0
16 23 28 0
-16 -23 -28 0
17 28 38 0
-17 -28 -38 0
9 15 29 0
-9 -15 -29 0
16 24 29 0
-16 -24 -29 0
17 29 39 0
-17 -29 -39 0
10 15 30 0
-10 -15 -30 0
16 25 30 0
-16 -25 -30 0
17 30 40 0
-17 -30 -40 0
11 15 31 0
-11 -15 -31 0
16 26 31 0
-16 -26 -31 0
17 31 41 0
-17 -31 -41 0
12 15 32 0
-12 -15 -32 0
16 27 32 0
-16 -27 -32 0
17 32 42 0
-17 -32 -42 0
13 15 33 0
-13 -15 -33 0
16 28 33 0
-16 -28 -33 0
17 33 43 0
-17 -33 -43 0
14 15 34 0
-14 -15 -34 0
16 29 34 0
-16 -29 -34 0
17 34 44 0
-17 -34 -44 0
15 35 0
-15 -35 0
16 30 35 0
-16 -30 -35 0
17 35 45 0
-17 -35 -45 0
1 14 36 0
-1 -14 -36 0
15 16 36 0
-15 -16 -36 0
16 31 36 0
-16 -31 -36 0
17 36 46 0
-17 -36 -46 0
2 14 37 0
-2 -14 -37 0
15 17 37 0
-15 -17 -37 0
16 32 37 0
-16 -32 -37 0
17 37 47 0
-17 -37 -47 0
3 14 38 0
-3 -14 -38 0
15 18 38 0
-15 -18 -38 0
16 33 38 0
-16 -33 -38 0
17 38 48 0
-17 -38 -48 0
4 14 39 0
-4 -14 -39 0
15 19 39 0
-15 -19 -39 0
16 34 39 0
-16 -34 -39 0
17 39 49 0
-17 -39 -49 0
5 14 40 0
-5 -14 -40 0
15 20 40 0
-15 -20 -40 0
16 35 40 0
-16 -35 -40 0
6 14 41 0
-6 -14 -41 0
15 21 41 0
-15 -21 -41 0
16 36 41 0
-16 -36 -41 0
7 14 42 0
-7 -14 -42 0
15 22 42 0
-15 -22 -42 0
16 37 42 0
-16 -37 -42 0
8 14 43 0
-8 -14 -43 0
15 23 43 0
-15 -23 -43 0
16 38 43 0
-16 -38 -43 0
9 14 44 0
-9 -14 -44 0
15 24 44 0
-15 -24 -44 0
16 39 44 0
-16 -39 -44 0
10 14 45 0
-10 -14 -45 0
15 25 45 0
-15 -25 -45 0
16 40 45 0
-16 -40 -45 0
11 14 46 0
-11 -14 -46 0
15 26 46 0
-15 -26 -46 0
16 41 46 0
-16 -41 -46 0
12 14 47 0
-12 -14 -47 0
15 27 47 0
-15 -27 -47 0
16 42 47 0
-16 -42 -47 0
13 14 48 0
-13 -14 -48 0
15 28 48 0
-15 -28 -48 0
16 43 48 0
-16 -43 -48 0
14 49 0
-14 -49 0
15 29 49 0
-15 -29 -49 0
16 44 49 0
-16 -44 -49 0
