certificates/rado_a15_c245_N49.drat
16 -49 0
43 -49 0
-49 0
14 0
-16 0
11 0
21 0
44 0
-46 0
-17 0
-9 0
41 0
7 0
26 0
27 0
22 0
12 0
39 0
36 0
6 0
4 0
19 0
0
